; Copyright (c) 2026 The RIINA Authors. All rights reserved.
; Auto-generated from 02_FORMAL/coq/domains/RadiationHardening.v (20 validations)
; Generated by scripts/generate-full-stack.py
;
; Translation Validation for RadiationHardening
; Layer 9: Verifies compiler backend preserves formal semantics.
; Each assertion checks source IR ≡ target code for a proven property.

(set-logic QF_LIA)
(set-option :produce-models true)

; IR node representation
(declare-sort IRNode 0)
(declare-sort TargetNode 0)

; flip_bit: source semantics (matches Coq)
(declare-fun source_flip_bit () Bool)
(declare-fun target_flip_bit () Bool)
(assert (= source_flip_bit target_flip_bit))

; majority_vote: source semantics (matches Coq)
(declare-fun source_majority_vote () Bool)
(declare-fun target_majority_vote () Bool)
(assert (= source_majority_vote target_majority_vote))

; tmr_errors: source semantics (matches Coq)
(declare-fun source_tmr_errors () Bool)
(declare-fun target_tmr_errors () Bool)
(assert (= source_tmr_errors target_tmr_errors))

; ecc_syndrome: source semantics (matches Coq)
(declare-fun source_ecc_syndrome () Bool)
(declare-fun target_ecc_syndrome () Bool)
(assert (= source_ecc_syndrome target_ecc_syndrome))

; watchdog_expired: source semantics (matches Coq)
(declare-fun source_watchdog_expired () Bool)
(declare-fun target_watchdog_expired () Bool)
(assert (= source_watchdog_expired target_watchdog_expired))

; cf_valid: source semantics (matches Coq)
(declare-fun source_cf_valid () Bool)
(declare-fun target_cf_valid () Bool)
(assert (= source_cf_valid target_cf_valid))

; canary_valid: source semantics (matches Coq)
(declare-fun source_canary_valid () Bool)
(declare-fun target_canary_valid () Bool)
(assert (= source_canary_valid target_canary_valid))

; mode_eqb: source semantics (matches Coq)
(declare-fun source_mode_eqb () Bool)
(declare-fun target_mode_eqb () Bool)
(assert (= source_mode_eqb target_mode_eqb))

; count_agreements: source semantics (matches Coq)
(declare-fun source_count_agreements () Bool)
(declare-fun target_count_agreements () Bool)
(assert (= source_count_agreements target_count_agreements))

; prob_lt: source semantics (matches Coq)
(declare-fun source_prob_lt () Bool)
(declare-fun target_prob_lt () Bool)
(assert (= source_prob_lt target_prob_lt))

; recovery_within_bound: source semantics (matches Coq)
(declare-fun source_recovery_within_bound () Bool)
(declare-fun target_recovery_within_bound () Bool)
(assert (= source_recovery_within_bound target_recovery_within_bound))

; cd_consistent: source semantics (matches Coq)
(declare-fun source_cd_consistent () Bool)
(declare-fun target_cd_consistent () Bool)
(assert (= source_cd_consistent target_cd_consistent))

; cd_recover: source semantics (matches Coq)
(declare-fun source_cd_recover () Bool)
(declare-fun target_cd_recover () Bool)
(assert (= source_cd_recover target_cd_recover))

; scrub_effective: source semantics (matches Coq)
(declare-fun source_scrub_effective () Bool)
(declare-fun target_scrub_effective () Bool)
(assert (= source_scrub_effective target_scrub_effective))

; seu_response: source semantics (matches Coq)
(declare-fun source_seu_response () Bool)
(declare-fun target_seu_response () Bool)
(assert (= source_seu_response target_seu_response))

; DOMAIN_001_01: translation preserves property (matches Coq: Theorem)
(declare-fun source_DOMAIN_001_01 () Bool)
(declare-fun target_DOMAIN_001_01 () Bool)
(assert (= source_DOMAIN_001_01 target_DOMAIN_001_01))

; DOMAIN_001_02: translation preserves property (matches Coq: Theorem)
(declare-fun source_DOMAIN_001_02 () Bool)
(declare-fun target_DOMAIN_001_02 () Bool)
(assert (= source_DOMAIN_001_02 target_DOMAIN_001_02))

; DOMAIN_001_03: translation preserves property (matches Coq: Theorem)
(declare-fun source_DOMAIN_001_03 () Bool)
(declare-fun target_DOMAIN_001_03 () Bool)
(assert (= source_DOMAIN_001_03 target_DOMAIN_001_03))

; DOMAIN_001_04: translation preserves property (matches Coq: Theorem)
(declare-fun source_DOMAIN_001_04 () Bool)
(declare-fun target_DOMAIN_001_04 () Bool)
(assert (= source_DOMAIN_001_04 target_DOMAIN_001_04))

; DOMAIN_001_05: translation preserves property (matches Coq: Theorem)
(declare-fun source_DOMAIN_001_05 () Bool)
(declare-fun target_DOMAIN_001_05 () Bool)
(assert (= source_DOMAIN_001_05 target_DOMAIN_001_05))

; DOMAIN_001_06: translation preserves property (matches Coq: Theorem)
(declare-fun source_DOMAIN_001_06 () Bool)
(declare-fun target_DOMAIN_001_06 () Bool)
(assert (= source_DOMAIN_001_06 target_DOMAIN_001_06))

; DOMAIN_001_07: translation preserves property (matches Coq: Theorem)
(declare-fun source_DOMAIN_001_07 () Bool)
(declare-fun target_DOMAIN_001_07 () Bool)
(assert (= source_DOMAIN_001_07 target_DOMAIN_001_07))

; DOMAIN_001_08: translation preserves property (matches Coq: Theorem)
(declare-fun source_DOMAIN_001_08 () Bool)
(declare-fun target_DOMAIN_001_08 () Bool)
(assert (= source_DOMAIN_001_08 target_DOMAIN_001_08))

; DOMAIN_001_09: translation preserves property (matches Coq: Theorem)
(declare-fun source_DOMAIN_001_09 () Bool)
(declare-fun target_DOMAIN_001_09 () Bool)
(assert (= source_DOMAIN_001_09 target_DOMAIN_001_09))

; DOMAIN_001_09_corrupted: translation preserves property (matches Coq: Theorem)
(declare-fun source_DOMAIN_001_09_corrupted () Bool)
(declare-fun target_DOMAIN_001_09_corrupted () Bool)
(assert (= source_DOMAIN_001_09_corrupted target_DOMAIN_001_09_corrupted))

; DOMAIN_001_10: translation preserves property (matches Coq: Theorem)
(declare-fun source_DOMAIN_001_10 () Bool)
(declare-fun target_DOMAIN_001_10 () Bool)
(assert (= source_DOMAIN_001_10 target_DOMAIN_001_10))

; DOMAIN_001_11: translation preserves property (matches Coq: Theorem)
(declare-fun source_DOMAIN_001_11 () Bool)
(declare-fun target_DOMAIN_001_11 () Bool)
(assert (= source_DOMAIN_001_11 target_DOMAIN_001_11))

; DOMAIN_001_12: translation preserves property (matches Coq: Theorem)
(declare-fun source_DOMAIN_001_12 () Bool)
(declare-fun target_DOMAIN_001_12 () Bool)
(assert (= source_DOMAIN_001_12 target_DOMAIN_001_12))

; DOMAIN_001_13: translation preserves property (matches Coq: Theorem)
(declare-fun source_DOMAIN_001_13 () Bool)
(declare-fun target_DOMAIN_001_13 () Bool)
(assert (= source_DOMAIN_001_13 target_DOMAIN_001_13))

; DOMAIN_001_14: translation preserves property (matches Coq: Theorem)
(declare-fun source_DOMAIN_001_14 () Bool)
(declare-fun target_DOMAIN_001_14 () Bool)
(assert (= source_DOMAIN_001_14 target_DOMAIN_001_14))

; DOMAIN_001_15: translation preserves property (matches Coq: Theorem)
(declare-fun source_DOMAIN_001_15 () Bool)
(declare-fun target_DOMAIN_001_15 () Bool)
(assert (= source_DOMAIN_001_15 target_DOMAIN_001_15))

; DOMAIN_001_15_single_corruption: translation preserves property (matches Coq: Theorem)
(declare-fun source_DOMAIN_001_15_single_corruption () Bool)
(declare-fun target_DOMAIN_001_15_single_corruption () Bool)
(assert (= source_DOMAIN_001_15_single_corruption target_DOMAIN_001_15_single_corruption))

; DOMAIN_001_16: translation preserves property (matches Coq: Theorem)
(declare-fun source_DOMAIN_001_16 () Bool)
(declare-fun target_DOMAIN_001_16 () Bool)
(assert (= source_DOMAIN_001_16 target_DOMAIN_001_16))

; DOMAIN_001_17: translation preserves property (matches Coq: Theorem)
(declare-fun source_DOMAIN_001_17 () Bool)
(declare-fun target_DOMAIN_001_17 () Bool)
(assert (= source_DOMAIN_001_17 target_DOMAIN_001_17))

; DOMAIN_001_18: translation preserves property (matches Coq: Theorem)
(declare-fun source_DOMAIN_001_18 () Bool)
(declare-fun target_DOMAIN_001_18 () Bool)
(assert (= source_DOMAIN_001_18 target_DOMAIN_001_18))

; Verify all translation validations are satisfiable
(check-sat)
(exit)
